N = 11;
H = 6;
T = 2;

avail = array3d(1..N, 1..H, 1..T, [4, 6, 4, 7, 1, 0, 1, 0, 0, 9, 8, 1, 7, 5, 8, 9, 2, 6, 9, 7, 3, 4, 1, 2, 4, 8, 2, 6, 5, 9, 7, 7, 7, 5, 9, 6, 6, 0, 6, 0, 10, 0, 2, 6, 8, 10, 6, 1, 5, 9, 10, 10, 2, 9, 5, 7, 6, 8, 9, 4, 0, 2, 8, 7, 5, 7, 8, 7, 2, 8, 1, 3, 2, 6, 8, 1, 8, 5, 8, 4, 6, 4, 9, 7, 9, 0, 4, 9, 0, 5, 4, 3, 4, 4, 4, 0, 5, 10, 7, 2, 5, 8, 7, 10, 4, 8, 7, 8, 2, 6, 6, 8, 2, 0, 10, 6, 4, 0, 4, 3, 2, 7, 3, 4, 0, 3, 1, 0, 6, 6, 3, 4]);

r = array2d(1..H, 1..T, [1, 2, 4, 4, 5, 5, 2, 6, 4, 6, 2, 4]);
